NAME : local_10
TYPE : ATSP
DIMENSION : 5
EDGE_WEIGHT_TYPE : EXPLICIT
EDGE_WEIGHT_FORMAT : FULL_MATRIX
EDGE_WEIGHT_SECTION
0 10000000 610 617 1214 
0 0 10000000 10000000 319 
0 10000000 0 181 10000000 
0 10000000 181 0 10000000 
0 10000000 10000000 10000000 0 
EOF